(set-logic ALL)
(declare-const z_random0_0 String)
(declare-const z_random0_1 String)
(declare-const z_random0_2 String)
(declare-const z_random0_3 String)
(declare-const z_random1_0 String)
(declare-const z_random1_1 String)
(declare-const z_random1_2 String)
(declare-const z_random1_3 String)
(declare-const z_random1_4 String)
(declare-const z_random1_5 String)
(declare-const z_random1_6 String)
(declare-const z_random1_7 String)
(declare-const z_random1_8 String)
(declare-const z_random1_9 String)
(declare-const z_random1_10 String)
(declare-const z_random1_11 String)
(declare-const z_random1_12 String)
(declare-const z_random1_13 String)
(declare-fun seed0_sigmaStar_0 () String)
(declare-fun seed0_sigmaStar_1 () String)
(declare-fun seed0_sigmaStar_3 () String)
(declare-fun seed0_sigmaStar_5 () String)
(declare-fun seed0_sigmaStar_7 () String)
(declare-fun seed0_literal_9 () String)
(declare-fun seed0_x_8 () String)
(declare-fun seed0_x_10 () String)
(declare-fun seed0_sigmaStar_12 () String)
(declare-fun seed0_literal_13 () String)
(declare-fun seed0_x_14 () String)
(declare-fun seed0_literal_16 () String)
(declare-fun seed0_x_17 () String)
(declare-fun seed1_x () String)
(assert (and (and (= seed0_literal_9 "\u{5c}\u{4c}\u{61}\u{72}\u{67}\u{65}\u{20}") (= (str.substr z_random1_8 0 (str.len seed0_x_8)) seed0_sigmaStar_7) (= (str.substr z_random1_4 0 (str.len seed0_x_10)) (str.++ (str.substr z_random1_13 0 (str.len seed0_literal_9)) (str.substr z_random1_1 0 (str.len seed0_x_8)))) (= (str.substr z_random1_9 0 (str.len seed0_literal_13)) "\u{2e}\u{67}\u{69}\u{66}") (= (str.substr z_random1_10 0 (str.len seed0_x_14)) (str.++ (str.substr z_random1_0 0 (str.len seed0_sigmaStar_12)) seed0_literal_13)) (= seed0_literal_16 "\u{2f}\u{2f}") (= (str.substr z_random1_12 0 (str.len seed0_x_17)) (str.++ (str.substr z_random1_11 0 (str.len seed0_literal_16)) seed0_x_14)) (str.in_re seed0_x_17 (re.++ (re.* re.allchar ) (re.++ (str.to_re "\u{2f}\u{65}\u{76}\u{69}\u{6c}") (re.* re.allchar ))))) (not (= (str.in_re (str.substr z_random1_9 (str.indexof z_random1_9 seed1_x (str.len seed0_literal_13)) (str.len seed1_x)) (re.++ (re.* re.allchar ) re.allchar  (re.* re.allchar ) (str.to_re (str.substr z_random1_6 (str.indexof z_random1_6 (str.++ "B" "C") (str.len seed0_x_14)) (str.len (str.++ "B" "C")))) (re.* re.allchar ) (str.to_re (str.substr z_random1_3 (str.indexof z_random1_3 (str.++ "C" "C") (str.len seed0_x_17)) (str.len (str.++ "C" "C")))) (re.* re.allchar ))) (str.in_re (str.substr z_random1_13 (str.indexof z_random1_13 seed1_x (str.len seed0_literal_9)) (str.len seed1_x)) (re.++ (re.* re.allchar ) re.allchar  (re.* re.allchar ) (str.to_re "B") (re.* re.allchar ) (str.to_re (str.++ "C" (str.substr z_random1_11 (str.indexof z_random1_11 (str.++ "C" "C") (str.len seed0_literal_16)) (str.len (str.++ "C" "C"))))) (re.* re.allchar )))))))
(check-sat)
(exit)